s = array1d(1..225, [0, 1, 0, 0, 10, 9, 13, 8, 0, 4, 0, 0, 0, 0, 0, 0, 0, 0, 0, 1, 6, 0, 0, 0, 12, 0, 3, 5, 2, 4, 12, 9, 0, 0, 0, 0, 0, 4, 3, 2, 0, 0, 11, 0, 10, 13, 4, 7, 0, 14, 0, 0, 0, 2, 0, 0, 0, 0, 5, 0, 0, 0, 3, 6, 0, 0, 2, 0, 0, 0, 9, 0, 0, 13, 5, 0, 0, 5, 4, 0, 1, 8, 0, 0, 0, 2, 0, 14, 10, 0, 0, 0, 8, 0, 0, 0, 4, 0, 14, 7, 0, 0, 9, 0, 6, 5, 12, 0, 7, 11, 0, 0, 0, 13, 0, 0, 10, 0, 0, 8, 0, 13, 0, 0, 0, 0, 9, 14, 11, 0, 0, 1, 8, 3, 0, 0, 11, 0, 0, 0, 0, 14, 6, 0, 0, 7, 0, 0, 8, 9, 8, 5, 0, 11, 0, 0, 0, 0, 0, 0, 13, 4, 12, 0, 0, 0, 0, 12, 0, 9, 2, 0, 7, 0, 11, 6, 14, 0, 0, 0, 0, 0, 0, 9, 12, 11, 0, 0, 0, 0, 3, 13, 0, 1, 0, 9, 0, 0, 0, 7, 10, 0, 0, 0, 3, 0, 5, 0, 0, 12, 1, 0, 9, 13, 0, 12, 6, 11, 5, 0, 0, 0, 0, 0, 0]);
n = 15;
